\ This file has been generated by DOcplex
\ ENCODING=ISO-8859-1
\Problem name: random_problem.lp

Minimize
 obj: - 804 x0 - 402 x1 - 201 x2 + 428 x3 + 214 x4 + 107 x5 + [ 3392 x0^2
      + 3392 x0*x1 + 1696 x0*x2 + 640 x0*x3 + 320 x0*x4 + 160 x0*x5 + 848 x1^2
      + 848 x1*x2 + 320 x1*x3 + 160 x1*x4 + 80 x1*x5 + 212 x2^2 + 160 x2*x3
      + 80 x2*x4 + 40 x2*x5 + 8832 x3^2 + 8832 x3*x4 + 4416 x3*x5 + 2208 x4^2
      + 2208 x4*x5 + 552 x5^2 ]/2
Subject To
 c0: 4 x0 + 2 x1 + x2 + 4 x3 + 2 x4 + x5 = 7

Bounds
 0 <= x0 <= 1
 0 <= x1 <= 1
 0 <= x2 <= 1
 0 <= x3 <= 1
 0 <= x4 <= 1
 0 <= x5 <= 1

Binaries
 x0 x1 x2 x3 x4 x5
End
